9
0, 406, 350, 400, 426, 643, 631, 85, 239
406, 0, 698, 678, 274, 571, 225, 334, 455
350, 698, 0, 140, 581, 640, 918, 381, 555
400, 678, 140, 0, 510, 516, 886, 402, 631
426, 274, 581, 510, 0, 299, 413, 343, 595
643, 571, 640, 516, 299, 0, 668, 573, 854
631, 225, 918, 886, 413, 668, 0, 560, 649
85, 334, 381, 402, 343, 573, 560, 0, 285
239, 455, 555, 631, 595, 854, 649, 285, 0
